13024
1 0 1 0 0 1 1 0 0 0 0 1 0 0 1 1 0 1 0 0 1 0 0 0 1 1 0 0 0 0 
6 11 6 2 6 5 17 24 14 17 24 20 2 20 17 14 17 17 25 11 2 0 25 0 5 20 17 24 5 24 5 25 6 25 20 20 24 15 11 14 0 14 15 6 24 14 0 20 11 14 25 2 14 5 6 20 17 11 11 14 0 5 20 11 11 11 24 0 5 5 6 6 11 17 24 14 24 20 2 24 20 0 6 17 17 17 17 0 20 5 2 24 17 11 0 24 2 11 25 6 6 0 17 25 2 25 0 11 14 14 14 2 2 11 11 25 24 15 5 24 5 2 25 20 6 0 5 15 0 25 0 11 24 25 2 14 0 5 20 17 0 14 20 14 20 25 25 5 2 5 
